(set-info :category "industrial")
(set-info :status sat)
(declare-fun x00 () (_ BitVec 8))
(declare-fun x02 () (_ BitVec 8))
(declare-fun x03 () (_ BitVec 8))
(declare-fun x07 () (_ BitVec 8))
(declare-fun x08 () (_ BitVec 8))
(declare-fun x10 () (_ BitVec 8))
(declare-fun x11 () (_ BitVec 8))
(declare-fun x13 () (_ BitVec 8))
(declare-fun x16 () (_ BitVec 8))
(declare-fun x17 () (_ BitVec 8))
(declare-fun x21 () (_ BitVec 8))
(declare-fun x24 () (_ BitVec 8))
(declare-fun x25 () (_ BitVec 8))
(declare-fun x28 () (_ BitVec 8))
(declare-fun x30 () (_ BitVec 8))
(declare-fun x32 () (_ BitVec 8))
(declare-fun x33 () (_ BitVec 8))
(declare-fun x35 () (_ BitVec 8))
(declare-fun x36 () (_ BitVec 8))
(declare-fun x37 () (_ BitVec 8))
(declare-fun x41 () (_ BitVec 8))
(declare-fun x44 () (_ BitVec 8))
(declare-fun x46 () (_ BitVec 8))
(declare-fun x48 () (_ BitVec 8))
(declare-fun x52 () (_ BitVec 8))
(declare-fun x53 () (_ BitVec 8))
(declare-fun x54 () (_ BitVec 8))
(declare-fun x55 () (_ BitVec 8))
(declare-fun x56 () (_ BitVec 8))
(declare-fun x57 () (_ BitVec 8))
(declare-fun x58 () (_ BitVec 8))
(declare-fun x60 () (_ BitVec 8))
(declare-fun x61 () (_ BitVec 8))
(declare-fun x62 () (_ BitVec 8))
(declare-fun x63 () (_ BitVec 8))
(declare-fun x64 () (_ BitVec 8))
(declare-fun x67 () (_ BitVec 8))
(declare-fun x68 () (_ BitVec 8))
(declare-fun x71 () (_ BitVec 8))
(declare-fun x72 () (_ BitVec 8))
(declare-fun x76 () (_ BitVec 8))
(declare-fun x77 () (_ BitVec 8))
(declare-fun x80 () (_ BitVec 8))
(declare-fun x81 () (_ BitVec 8))
(declare-fun x83 () (_ BitVec 8))
(declare-fun x85 () (_ BitVec 8))
(declare-fun x86 () (_ BitVec 8))
(assert (bvult x00 (_ bv9 8)))
(assert (bvult x02 (_ bv9 8)))
(assert (bvult x03 (_ bv9 8)))
(assert (bvult x07 (_ bv9 8)))
(assert (bvult x08 (_ bv9 8)))
(assert (bvult x10 (_ bv9 8)))
(assert (bvult x11 (_ bv9 8)))
(assert (bvult x13 (_ bv9 8)))
(assert (bvult x16 (_ bv9 8)))
(assert (bvult x17 (_ bv9 8)))
(assert (bvult x21 (_ bv9 8)))
(assert (bvult x24 (_ bv9 8)))
(assert (bvult x25 (_ bv9 8)))
(assert (bvult x28 (_ bv9 8)))
(assert (bvult x30 (_ bv9 8)))
(assert (bvult x32 (_ bv9 8)))
(assert (bvult x33 (_ bv9 8)))
(assert (bvult x35 (_ bv9 8)))
(assert (bvult x36 (_ bv9 8)))
(assert (bvult x37 (_ bv9 8)))
(assert (bvult x41 (_ bv9 8)))
(assert (bvult x44 (_ bv9 8)))
(assert (bvult x46 (_ bv9 8)))
(assert (bvult x48 (_ bv9 8)))
(assert (bvult x52 (_ bv9 8)))
(assert (bvult x53 (_ bv9 8)))
(assert (bvult x54 (_ bv9 8)))
(assert (bvult x55 (_ bv9 8)))
(assert (bvult x56 (_ bv9 8)))
(assert (bvult x57 (_ bv9 8)))
(assert (bvult x58 (_ bv9 8)))
(assert (bvult x60 (_ bv9 8)))
(assert (bvult x61 (_ bv9 8)))
(assert (bvult x62 (_ bv9 8)))
(assert (bvult x63 (_ bv9 8)))
(assert (bvult x64 (_ bv9 8)))
(assert (bvult x67 (_ bv9 8)))
(assert (bvult x68 (_ bv9 8)))
(assert (bvult x71 (_ bv9 8)))
(assert (bvult x72 (_ bv9 8)))
(assert (bvult x76 (_ bv9 8)))
(assert (bvult x77 (_ bv9 8)))
(assert (bvult x80 (_ bv9 8)))
(assert (bvult x81 (_ bv9 8)))
(assert (bvult x83 (_ bv9 8)))
(assert (bvult x85 (_ bv9 8)))
(assert (bvult x86 (_ bv9 8)))
(assert (not (= x00 (_ bv2 8))))
(assert (not (= x00 x02)))
(assert (not (= x00 x03)))
(assert (not (= x00 (_ bv3 8))))
(assert (not (= x00 (_ bv4 8))))
(assert (not (= x00 (_ bv5 8))))
(assert (not (= x00 x07)))
(assert (not (= x00 x08)))
(assert (not (= (_ bv2 8) x02)))
(assert (not (= (_ bv2 8) x03)))
(assert (not (= (_ bv2 8) (_ bv3 8))))
(assert (not (= (_ bv2 8) (_ bv4 8))))
(assert (not (= (_ bv2 8) (_ bv5 8))))
(assert (not (= (_ bv2 8) x07)))
(assert (not (= (_ bv2 8) x08)))
(assert (not (= x02 x03)))
(assert (not (= x02 (_ bv3 8))))
(assert (not (= x02 (_ bv4 8))))
(assert (not (= x02 (_ bv5 8))))
(assert (not (= x02 x07)))
(assert (not (= x02 x08)))
(assert (not (= x03 (_ bv3 8))))
(assert (not (= x03 (_ bv4 8))))
(assert (not (= x03 (_ bv5 8))))
(assert (not (= x03 x07)))
(assert (not (= x03 x08)))
(assert (not (= (_ bv3 8) (_ bv4 8))))
(assert (not (= (_ bv3 8) (_ bv5 8))))
(assert (not (= (_ bv3 8) x07)))
(assert (not (= (_ bv3 8) x08)))
(assert (not (= (_ bv4 8) (_ bv5 8))))
(assert (not (= (_ bv4 8) x07)))
(assert (not (= (_ bv4 8) x08)))
(assert (not (= (_ bv5 8) x07)))
(assert (not (= (_ bv5 8) x08)))
(assert (not (= x07 x08)))
(assert (not (= x10 x11)))
(assert (not (= x10 (_ bv8 8))))
(assert (not (= x10 x13)))
(assert (not (= x10 (_ bv9 8))))
(assert (not (= x10 (_ bv1 8))))
(assert (not (= x10 x16)))
(assert (not (= x10 x17)))
(assert (not (= x10 (_ bv4 8))))
(assert (not (= x11 (_ bv8 8))))
(assert (not (= x11 x13)))
(assert (not (= x11 (_ bv9 8))))
(assert (not (= x11 (_ bv1 8))))
(assert (not (= x11 x16)))
(assert (not (= x11 x17)))
(assert (not (= x11 (_ bv4 8))))
(assert (not (= (_ bv8 8) x13)))
(assert (not (= (_ bv8 8) (_ bv9 8))))
(assert (not (= (_ bv8 8) (_ bv1 8))))
(assert (not (= (_ bv8 8) x16)))
(assert (not (= (_ bv8 8) x17)))
(assert (not (= (_ bv8 8) (_ bv4 8))))
(assert (not (= x13 (_ bv9 8))))
(assert (not (= x13 (_ bv1 8))))
(assert (not (= x13 x16)))
(assert (not (= x13 x17)))
(assert (not (= x13 (_ bv4 8))))
(assert (not (= (_ bv9 8) (_ bv1 8))))
(assert (not (= (_ bv9 8) x16)))
(assert (not (= (_ bv9 8) x17)))
(assert (not (= (_ bv9 8) (_ bv4 8))))
(assert (not (= (_ bv1 8) x16)))
(assert (not (= (_ bv1 8) x17)))
(assert (not (= (_ bv1 8) (_ bv4 8))))
(assert (not (= x16 x17)))
(assert (not (= x16 (_ bv4 8))))
(assert (not (= x17 (_ bv4 8))))
(assert (not (= (_ bv3 8) x21)))
(assert (not (= (_ bv3 8) (_ bv5 8))))
(assert (not (= (_ bv3 8) (_ bv7 8))))
(assert (not (= (_ bv3 8) x24)))
(assert (not (= (_ bv3 8) x25)))
(assert (not (= (_ bv3 8) (_ bv1 8))))
(assert (not (= (_ bv3 8) (_ bv6 8))))
(assert (not (= (_ bv3 8) x28)))
(assert (not (= x21 (_ bv5 8))))
(assert (not (= x21 (_ bv7 8))))
(assert (not (= x21 x24)))
(assert (not (= x21 x25)))
(assert (not (= x21 (_ bv1 8))))
(assert (not (= x21 (_ bv6 8))))
(assert (not (= x21 x28)))
(assert (not (= (_ bv5 8) (_ bv7 8))))
(assert (not (= (_ bv5 8) x24)))
(assert (not (= (_ bv5 8) x25)))
(assert (not (= (_ bv5 8) (_ bv1 8))))
(assert (not (= (_ bv5 8) (_ bv6 8))))
(assert (not (= (_ bv5 8) x28)))
(assert (not (= (_ bv7 8) x24)))
(assert (not (= (_ bv7 8) x25)))
(assert (not (= (_ bv7 8) (_ bv1 8))))
(assert (not (= (_ bv7 8) (_ bv6 8))))
(assert (not (= (_ bv7 8) x28)))
(assert (not (= x24 x25)))
(assert (not (= x24 (_ bv1 8))))
(assert (not (= x24 (_ bv6 8))))
(assert (not (= x24 x28)))
(assert (not (= x25 (_ bv1 8))))
(assert (not (= x25 (_ bv6 8))))
(assert (not (= x25 x28)))
(assert (not (= (_ bv1 8) (_ bv6 8))))
(assert (not (= (_ bv1 8) x28)))
(assert (not (= (_ bv6 8) x28)))
(assert (not (= x30 (_ bv8 8))))
(assert (not (= x30 x32)))
(assert (not (= x30 x33)))
(assert (not (= x30 (_ bv6 8))))
(assert (not (= x30 x35)))
(assert (not (= x30 x36)))
(assert (not (= x30 x37)))
(assert (not (= x30 (_ bv7 8))))
(assert (not (= (_ bv8 8) x32)))
(assert (not (= (_ bv8 8) x33)))
(assert (not (= (_ bv8 8) (_ bv6 8))))
(assert (not (= (_ bv8 8) x35)))
(assert (not (= (_ bv8 8) x36)))
(assert (not (= (_ bv8 8) x37)))
(assert (not (= (_ bv8 8) (_ bv7 8))))
(assert (not (= x32 x33)))
(assert (not (= x32 (_ bv6 8))))
(assert (not (= x32 x35)))
(assert (not (= x32 x36)))
(assert (not (= x32 x37)))
(assert (not (= x32 (_ bv7 8))))
(assert (not (= x33 (_ bv6 8))))
(assert (not (= x33 x35)))
(assert (not (= x33 x36)))
(assert (not (= x33 x37)))
(assert (not (= x33 (_ bv7 8))))
(assert (not (= (_ bv6 8) x35)))
(assert (not (= (_ bv6 8) x36)))
(assert (not (= (_ bv6 8) x37)))
(assert (not (= (_ bv6 8) (_ bv7 8))))
(assert (not (= x35 x36)))
(assert (not (= x35 x37)))
(assert (not (= x35 (_ bv7 8))))
(assert (not (= x36 x37)))
(assert (not (= x36 (_ bv7 8))))
(assert (not (= x37 (_ bv7 8))))
(assert (not (= (_ bv7 8) x41)))
(assert (not (= (_ bv7 8) (_ bv3 8))))
(assert (not (= (_ bv7 8) (_ bv9 8))))
(assert (not (= (_ bv7 8) x44)))
(assert (not (= (_ bv7 8) (_ bv5 8))))
(assert (not (= (_ bv7 8) x46)))
(assert (not (= (_ bv7 8) (_ bv8 8))))
(assert (not (= (_ bv7 8) x48)))
(assert (not (= x41 (_ bv3 8))))
(assert (not (= x41 (_ bv9 8))))
(assert (not (= x41 x44)))
(assert (not (= x41 (_ bv5 8))))
(assert (not (= x41 x46)))
(assert (not (= x41 (_ bv8 8))))
(assert (not (= x41 x48)))
(assert (not (= (_ bv3 8) (_ bv9 8))))
(assert (not (= (_ bv3 8) x44)))
(assert (not (= (_ bv3 8) (_ bv5 8))))
(assert (not (= (_ bv3 8) x46)))
(assert (not (= (_ bv3 8) (_ bv8 8))))
(assert (not (= (_ bv3 8) x48)))
(assert (not (= (_ bv9 8) x44)))
(assert (not (= (_ bv9 8) (_ bv5 8))))
(assert (not (= (_ bv9 8) x46)))
(assert (not (= (_ bv9 8) (_ bv8 8))))
(assert (not (= (_ bv9 8) x48)))
(assert (not (= x44 (_ bv5 8))))
(assert (not (= x44 x46)))
(assert (not (= x44 (_ bv8 8))))
(assert (not (= x44 x48)))
(assert (not (= (_ bv5 8) x46)))
(assert (not (= (_ bv5 8) (_ bv8 8))))
(assert (not (= (_ bv5 8) x48)))
(assert (not (= x46 (_ bv8 8))))
(assert (not (= x46 x48)))
(assert (not (= (_ bv8 8) x48)))
(assert (not (= (_ bv2 8) (_ bv9 8))))
(assert (not (= (_ bv2 8) x52)))
(assert (not (= (_ bv2 8) x53)))
(assert (not (= (_ bv2 8) x54)))
(assert (not (= (_ bv2 8) x55)))
(assert (not (= (_ bv2 8) x56)))
(assert (not (= (_ bv2 8) x57)))
(assert (not (= (_ bv2 8) x58)))
(assert (not (= (_ bv9 8) x52)))
(assert (not (= (_ bv9 8) x53)))
(assert (not (= (_ bv9 8) x54)))
(assert (not (= (_ bv9 8) x55)))
(assert (not (= (_ bv9 8) x56)))
(assert (not (= (_ bv9 8) x57)))
(assert (not (= (_ bv9 8) x58)))
(assert (not (= x52 x53)))
(assert (not (= x52 x54)))
(assert (not (= x52 x55)))
(assert (not (= x52 x56)))
(assert (not (= x52 x57)))
(assert (not (= x52 x58)))
(assert (not (= x53 x54)))
(assert (not (= x53 x55)))
(assert (not (= x53 x56)))
(assert (not (= x53 x57)))
(assert (not (= x53 x58)))
(assert (not (= x54 x55)))
(assert (not (= x54 x56)))
(assert (not (= x54 x57)))
(assert (not (= x54 x58)))
(assert (not (= x55 x56)))
(assert (not (= x55 x57)))
(assert (not (= x55 x58)))
(assert (not (= x56 x57)))
(assert (not (= x56 x58)))
(assert (not (= x57 x58)))
(assert (not (= x60 x61)))
(assert (not (= x60 x62)))
(assert (not (= x60 x63)))
(assert (not (= x60 x64)))
(assert (not (= x60 (_ bv8 8))))
(assert (not (= x60 (_ bv7 8))))
(assert (not (= x60 x67)))
(assert (not (= x60 x68)))
(assert (not (= x61 x62)))
(assert (not (= x61 x63)))
(assert (not (= x61 x64)))
(assert (not (= x61 (_ bv8 8))))
(assert (not (= x61 (_ bv7 8))))
(assert (not (= x61 x67)))
(assert (not (= x61 x68)))
(assert (not (= x62 x63)))
(assert (not (= x62 x64)))
(assert (not (= x62 (_ bv8 8))))
(assert (not (= x62 (_ bv7 8))))
(assert (not (= x62 x67)))
(assert (not (= x62 x68)))
(assert (not (= x63 x64)))
(assert (not (= x63 (_ bv8 8))))
(assert (not (= x63 (_ bv7 8))))
(assert (not (= x63 x67)))
(assert (not (= x63 x68)))
(assert (not (= x64 (_ bv8 8))))
(assert (not (= x64 (_ bv7 8))))
(assert (not (= x64 x67)))
(assert (not (= x64 x68)))
(assert (not (= (_ bv8 8) (_ bv7 8))))
(assert (not (= (_ bv8 8) x67)))
(assert (not (= (_ bv8 8) x68)))
(assert (not (= (_ bv7 8) x67)))
(assert (not (= (_ bv7 8) x68)))
(assert (not (= x67 x68)))
(assert (not (= (_ bv4 8) x71)))
(assert (not (= (_ bv4 8) x72)))
(assert (not (= (_ bv4 8) (_ bv3 8))))
(assert (not (= (_ bv4 8) (_ bv2 8))))
(assert (not (= (_ bv4 8) (_ bv6 8))))
(assert (not (= (_ bv4 8) x76)))
(assert (not (= (_ bv4 8) x77)))
(assert (not (= (_ bv4 8) (_ bv1 8))))
(assert (not (= x71 x72)))
(assert (not (= x71 (_ bv3 8))))
(assert (not (= x71 (_ bv2 8))))
(assert (not (= x71 (_ bv6 8))))
(assert (not (= x71 x76)))
(assert (not (= x71 x77)))
(assert (not (= x71 (_ bv1 8))))
(assert (not (= x72 (_ bv3 8))))
(assert (not (= x72 (_ bv2 8))))
(assert (not (= x72 (_ bv6 8))))
(assert (not (= x72 x76)))
(assert (not (= x72 x77)))
(assert (not (= x72 (_ bv1 8))))
(assert (not (= (_ bv3 8) (_ bv2 8))))
(assert (not (= (_ bv3 8) (_ bv6 8))))
(assert (not (= (_ bv3 8) x76)))
(assert (not (= (_ bv3 8) x77)))
(assert (not (= (_ bv3 8) (_ bv1 8))))
(assert (not (= (_ bv2 8) (_ bv6 8))))
(assert (not (= (_ bv2 8) x76)))
(assert (not (= (_ bv2 8) x77)))
(assert (not (= (_ bv2 8) (_ bv1 8))))
(assert (not (= (_ bv6 8) x76)))
(assert (not (= (_ bv6 8) x77)))
(assert (not (= (_ bv6 8) (_ bv1 8))))
(assert (not (= x76 x77)))
(assert (not (= x76 (_ bv1 8))))
(assert (not (= x77 (_ bv1 8))))
(assert (not (= x80 x81)))
(assert (not (= x80 (_ bv1 8))))
(assert (not (= x80 x83)))
(assert (not (= x80 (_ bv7 8))))
(assert (not (= x80 x85)))
(assert (not (= x80 x86)))
(assert (not (= x80 (_ bv3 8))))
(assert (not (= x80 (_ bv5 8))))
(assert (not (= x81 (_ bv1 8))))
(assert (not (= x81 x83)))
(assert (not (= x81 (_ bv7 8))))
(assert (not (= x81 x85)))
(assert (not (= x81 x86)))
(assert (not (= x81 (_ bv3 8))))
(assert (not (= x81 (_ bv5 8))))
(assert (not (= (_ bv1 8) x83)))
(assert (not (= (_ bv1 8) (_ bv7 8))))
(assert (not (= (_ bv1 8) x85)))
(assert (not (= (_ bv1 8) x86)))
(assert (not (= (_ bv1 8) (_ bv3 8))))
(assert (not (= (_ bv1 8) (_ bv5 8))))
(assert (not (= x83 (_ bv7 8))))
(assert (not (= x83 x85)))
(assert (not (= x83 x86)))
(assert (not (= x83 (_ bv3 8))))
(assert (not (= x83 (_ bv5 8))))
(assert (not (= (_ bv7 8) x85)))
(assert (not (= (_ bv7 8) x86)))
(assert (not (= (_ bv7 8) (_ bv3 8))))
(assert (not (= (_ bv7 8) (_ bv5 8))))
(assert (not (= x85 x86)))
(assert (not (= x85 (_ bv3 8))))
(assert (not (= x85 (_ bv5 8))))
(assert (not (= x86 (_ bv3 8))))
(assert (not (= x86 (_ bv5 8))))
(assert (not (= (_ bv3 8) (_ bv5 8))))
(assert (not (= x00 x10)))
(assert (not (= x00 (_ bv3 8))))
(assert (not (= x00 x30)))
(assert (not (= x00 (_ bv7 8))))
(assert (not (= x00 (_ bv2 8))))
(assert (not (= x00 x60)))
(assert (not (= x00 (_ bv4 8))))
(assert (not (= x00 x80)))
(assert (not (= x10 (_ bv3 8))))
(assert (not (= x10 x30)))
(assert (not (= x10 (_ bv7 8))))
(assert (not (= x10 (_ bv2 8))))
(assert (not (= x10 x60)))
(assert (not (= x10 (_ bv4 8))))
(assert (not (= x10 x80)))
(assert (not (= (_ bv3 8) x30)))
(assert (not (= (_ bv3 8) (_ bv7 8))))
(assert (not (= (_ bv3 8) (_ bv2 8))))
(assert (not (= (_ bv3 8) x60)))
(assert (not (= (_ bv3 8) (_ bv4 8))))
(assert (not (= (_ bv3 8) x80)))
(assert (not (= x30 (_ bv7 8))))
(assert (not (= x30 (_ bv2 8))))
(assert (not (= x30 x60)))
(assert (not (= x30 (_ bv4 8))))
(assert (not (= x30 x80)))
(assert (not (= (_ bv7 8) (_ bv2 8))))
(assert (not (= (_ bv7 8) x60)))
(assert (not (= (_ bv7 8) (_ bv4 8))))
(assert (not (= (_ bv7 8) x80)))
(assert (not (= (_ bv2 8) x60)))
(assert (not (= (_ bv2 8) (_ bv4 8))))
(assert (not (= (_ bv2 8) x80)))
(assert (not (= x60 (_ bv4 8))))
(assert (not (= x60 x80)))
(assert (not (= (_ bv4 8) x80)))
(assert (not (= (_ bv2 8) x11)))
(assert (not (= (_ bv2 8) x21)))
(assert (not (= (_ bv2 8) (_ bv8 8))))
(assert (not (= (_ bv2 8) x41)))
(assert (not (= (_ bv2 8) (_ bv9 8))))
(assert (not (= (_ bv2 8) x61)))
(assert (not (= (_ bv2 8) x71)))
(assert (not (= (_ bv2 8) x81)))
(assert (not (= x11 x21)))
(assert (not (= x11 (_ bv8 8))))
(assert (not (= x11 x41)))
(assert (not (= x11 (_ bv9 8))))
(assert (not (= x11 x61)))
(assert (not (= x11 x71)))
(assert (not (= x11 x81)))
(assert (not (= x21 (_ bv8 8))))
(assert (not (= x21 x41)))
(assert (not (= x21 (_ bv9 8))))
(assert (not (= x21 x61)))
(assert (not (= x21 x71)))
(assert (not (= x21 x81)))
(assert (not (= (_ bv8 8) x41)))
(assert (not (= (_ bv8 8) (_ bv9 8))))
(assert (not (= (_ bv8 8) x61)))
(assert (not (= (_ bv8 8) x71)))
(assert (not (= (_ bv8 8) x81)))
(assert (not (= x41 (_ bv9 8))))
(assert (not (= x41 x61)))
(assert (not (= x41 x71)))
(assert (not (= x41 x81)))
(assert (not (= (_ bv9 8) x61)))
(assert (not (= (_ bv9 8) x71)))
(assert (not (= (_ bv9 8) x81)))
(assert (not (= x61 x71)))
(assert (not (= x61 x81)))
(assert (not (= x71 x81)))
(assert (not (= x02 (_ bv8 8))))
(assert (not (= x02 (_ bv5 8))))
(assert (not (= x02 x32)))
(assert (not (= x02 (_ bv3 8))))
(assert (not (= x02 x52)))
(assert (not (= x02 x62)))
(assert (not (= x02 x72)))
(assert (not (= x02 (_ bv1 8))))
(assert (not (= (_ bv8 8) (_ bv5 8))))
(assert (not (= (_ bv8 8) x32)))
(assert (not (= (_ bv8 8) (_ bv3 8))))
(assert (not (= (_ bv8 8) x52)))
(assert (not (= (_ bv8 8) x62)))
(assert (not (= (_ bv8 8) x72)))
(assert (not (= (_ bv8 8) (_ bv1 8))))
(assert (not (= (_ bv5 8) x32)))
(assert (not (= (_ bv5 8) (_ bv3 8))))
(assert (not (= (_ bv5 8) x52)))
(assert (not (= (_ bv5 8) x62)))
(assert (not (= (_ bv5 8) x72)))
(assert (not (= (_ bv5 8) (_ bv1 8))))
(assert (not (= x32 (_ bv3 8))))
(assert (not (= x32 x52)))
(assert (not (= x32 x62)))
(assert (not (= x32 x72)))
(assert (not (= x32 (_ bv1 8))))
(assert (not (= (_ bv3 8) x52)))
(assert (not (= (_ bv3 8) x62)))
(assert (not (= (_ bv3 8) x72)))
(assert (not (= (_ bv3 8) (_ bv1 8))))
(assert (not (= x52 x62)))
(assert (not (= x52 x72)))
(assert (not (= x52 (_ bv1 8))))
(assert (not (= x62 x72)))
(assert (not (= x62 (_ bv1 8))))
(assert (not (= x72 (_ bv1 8))))
(assert (not (= x03 x13)))
(assert (not (= x03 (_ bv7 8))))
(assert (not (= x03 x33)))
(assert (not (= x03 (_ bv9 8))))
(assert (not (= x03 x53)))
(assert (not (= x03 x63)))
(assert (not (= x03 (_ bv3 8))))
(assert (not (= x03 x83)))
(assert (not (= x13 (_ bv7 8))))
(assert (not (= x13 x33)))
(assert (not (= x13 (_ bv9 8))))
(assert (not (= x13 x53)))
(assert (not (= x13 x63)))
(assert (not (= x13 (_ bv3 8))))
(assert (not (= x13 x83)))
(assert (not (= (_ bv7 8) x33)))
(assert (not (= (_ bv7 8) (_ bv9 8))))
(assert (not (= (_ bv7 8) x53)))
(assert (not (= (_ bv7 8) x63)))
(assert (not (= (_ bv7 8) (_ bv3 8))))
(assert (not (= (_ bv7 8) x83)))
(assert (not (= x33 (_ bv9 8))))
(assert (not (= x33 x53)))
(assert (not (= x33 x63)))
(assert (not (= x33 (_ bv3 8))))
(assert (not (= x33 x83)))
(assert (not (= (_ bv9 8) x53)))
(assert (not (= (_ bv9 8) x63)))
(assert (not (= (_ bv9 8) (_ bv3 8))))
(assert (not (= (_ bv9 8) x83)))
(assert (not (= x53 x63)))
(assert (not (= x53 (_ bv3 8))))
(assert (not (= x53 x83)))
(assert (not (= x63 (_ bv3 8))))
(assert (not (= x63 x83)))
(assert (not (= (_ bv3 8) x83)))
(assert (not (= (_ bv3 8) (_ bv9 8))))
(assert (not (= (_ bv3 8) x24)))
(assert (not (= (_ bv3 8) (_ bv6 8))))
(assert (not (= (_ bv3 8) x44)))
(assert (not (= (_ bv3 8) x54)))
(assert (not (= (_ bv3 8) x64)))
(assert (not (= (_ bv3 8) (_ bv2 8))))
(assert (not (= (_ bv3 8) (_ bv7 8))))
(assert (not (= (_ bv9 8) x24)))
(assert (not (= (_ bv9 8) (_ bv6 8))))
(assert (not (= (_ bv9 8) x44)))
(assert (not (= (_ bv9 8) x54)))
(assert (not (= (_ bv9 8) x64)))
(assert (not (= (_ bv9 8) (_ bv2 8))))
(assert (not (= (_ bv9 8) (_ bv7 8))))
(assert (not (= x24 (_ bv6 8))))
(assert (not (= x24 x44)))
(assert (not (= x24 x54)))
(assert (not (= x24 x64)))
(assert (not (= x24 (_ bv2 8))))
(assert (not (= x24 (_ bv7 8))))
(assert (not (= (_ bv6 8) x44)))
(assert (not (= (_ bv6 8) x54)))
(assert (not (= (_ bv6 8) x64)))
(assert (not (= (_ bv6 8) (_ bv2 8))))
(assert (not (= (_ bv6 8) (_ bv7 8))))
(assert (not (= x44 x54)))
(assert (not (= x44 x64)))
(assert (not (= x44 (_ bv2 8))))
(assert (not (= x44 (_ bv7 8))))
(assert (not (= x54 x64)))
(assert (not (= x54 (_ bv2 8))))
(assert (not (= x54 (_ bv7 8))))
(assert (not (= x64 (_ bv2 8))))
(assert (not (= x64 (_ bv7 8))))
(assert (not (= (_ bv2 8) (_ bv7 8))))
(assert (not (= (_ bv4 8) (_ bv1 8))))
(assert (not (= (_ bv4 8) x25)))
(assert (not (= (_ bv4 8) x35)))
(assert (not (= (_ bv4 8) (_ bv5 8))))
(assert (not (= (_ bv4 8) x55)))
(assert (not (= (_ bv4 8) (_ bv8 8))))
(assert (not (= (_ bv4 8) (_ bv6 8))))
(assert (not (= (_ bv4 8) x85)))
(assert (not (= (_ bv1 8) x25)))
(assert (not (= (_ bv1 8) x35)))
(assert (not (= (_ bv1 8) (_ bv5 8))))
(assert (not (= (_ bv1 8) x55)))
(assert (not (= (_ bv1 8) (_ bv8 8))))
(assert (not (= (_ bv1 8) (_ bv6 8))))
(assert (not (= (_ bv1 8) x85)))
(assert (not (= x25 x35)))
(assert (not (= x25 (_ bv5 8))))
(assert (not (= x25 x55)))
(assert (not (= x25 (_ bv8 8))))
(assert (not (= x25 (_ bv6 8))))
(assert (not (= x25 x85)))
(assert (not (= x35 (_ bv5 8))))
(assert (not (= x35 x55)))
(assert (not (= x35 (_ bv8 8))))
(assert (not (= x35 (_ bv6 8))))
(assert (not (= x35 x85)))
(assert (not (= (_ bv5 8) x55)))
(assert (not (= (_ bv5 8) (_ bv8 8))))
(assert (not (= (_ bv5 8) (_ bv6 8))))
(assert (not (= (_ bv5 8) x85)))
(assert (not (= x55 (_ bv8 8))))
(assert (not (= x55 (_ bv6 8))))
(assert (not (= x55 x85)))
(assert (not (= (_ bv8 8) (_ bv6 8))))
(assert (not (= (_ bv8 8) x85)))
(assert (not (= (_ bv6 8) x85)))
(assert (not (= (_ bv5 8) x16)))
(assert (not (= (_ bv5 8) (_ bv1 8))))
(assert (not (= (_ bv5 8) x36)))
(assert (not (= (_ bv5 8) x46)))
(assert (not (= (_ bv5 8) x56)))
(assert (not (= (_ bv5 8) (_ bv7 8))))
(assert (not (= (_ bv5 8) x76)))
(assert (not (= (_ bv5 8) x86)))
(assert (not (= x16 (_ bv1 8))))
(assert (not (= x16 x36)))
(assert (not (= x16 x46)))
(assert (not (= x16 x56)))
(assert (not (= x16 (_ bv7 8))))
(assert (not (= x16 x76)))
(assert (not (= x16 x86)))
(assert (not (= (_ bv1 8) x36)))
(assert (not (= (_ bv1 8) x46)))
(assert (not (= (_ bv1 8) x56)))
(assert (not (= (_ bv1 8) (_ bv7 8))))
(assert (not (= (_ bv1 8) x76)))
(assert (not (= (_ bv1 8) x86)))
(assert (not (= x36 x46)))
(assert (not (= x36 x56)))
(assert (not (= x36 (_ bv7 8))))
(assert (not (= x36 x76)))
(assert (not (= x36 x86)))
(assert (not (= x46 x56)))
(assert (not (= x46 (_ bv7 8))))
(assert (not (= x46 x76)))
(assert (not (= x46 x86)))
(assert (not (= x56 (_ bv7 8))))
(assert (not (= x56 x76)))
(assert (not (= x56 x86)))
(assert (not (= (_ bv7 8) x76)))
(assert (not (= (_ bv7 8) x86)))
(assert (not (= x76 x86)))
(assert (not (= x07 x17)))
(assert (not (= x07 (_ bv6 8))))
(assert (not (= x07 x37)))
(assert (not (= x07 (_ bv8 8))))
(assert (not (= x07 x57)))
(assert (not (= x07 x67)))
(assert (not (= x07 x77)))
(assert (not (= x07 (_ bv3 8))))
(assert (not (= x17 (_ bv6 8))))
(assert (not (= x17 x37)))
(assert (not (= x17 (_ bv8 8))))
(assert (not (= x17 x57)))
(assert (not (= x17 x67)))
(assert (not (= x17 x77)))
(assert (not (= x17 (_ bv3 8))))
(assert (not (= (_ bv6 8) x37)))
(assert (not (= (_ bv6 8) (_ bv8 8))))
(assert (not (= (_ bv6 8) x57)))
(assert (not (= (_ bv6 8) x67)))
(assert (not (= (_ bv6 8) x77)))
(assert (not (= (_ bv6 8) (_ bv3 8))))
(assert (not (= x37 (_ bv8 8))))
(assert (not (= x37 x57)))
(assert (not (= x37 x67)))
(assert (not (= x37 x77)))
(assert (not (= x37 (_ bv3 8))))
(assert (not (= (_ bv8 8) x57)))
(assert (not (= (_ bv8 8) x67)))
(assert (not (= (_ bv8 8) x77)))
(assert (not (= (_ bv8 8) (_ bv3 8))))
(assert (not (= x57 x67)))
(assert (not (= x57 x77)))
(assert (not (= x57 (_ bv3 8))))
(assert (not (= x67 x77)))
(assert (not (= x67 (_ bv3 8))))
(assert (not (= x77 (_ bv3 8))))
(assert (not (= x08 (_ bv4 8))))
(assert (not (= x08 x28)))
(assert (not (= x08 (_ bv7 8))))
(assert (not (= x08 x48)))
(assert (not (= x08 x58)))
(assert (not (= x08 x68)))
(assert (not (= x08 (_ bv1 8))))
(assert (not (= x08 (_ bv5 8))))
(assert (not (= (_ bv4 8) x28)))
(assert (not (= (_ bv4 8) (_ bv7 8))))
(assert (not (= (_ bv4 8) x48)))
(assert (not (= (_ bv4 8) x58)))
(assert (not (= (_ bv4 8) x68)))
(assert (not (= (_ bv4 8) (_ bv1 8))))
(assert (not (= (_ bv4 8) (_ bv5 8))))
(assert (not (= x28 (_ bv7 8))))
(assert (not (= x28 x48)))
(assert (not (= x28 x58)))
(assert (not (= x28 x68)))
(assert (not (= x28 (_ bv1 8))))
(assert (not (= x28 (_ bv5 8))))
(assert (not (= (_ bv7 8) x48)))
(assert (not (= (_ bv7 8) x58)))
(assert (not (= (_ bv7 8) x68)))
(assert (not (= (_ bv7 8) (_ bv1 8))))
(assert (not (= (_ bv7 8) (_ bv5 8))))
(assert (not (= x48 x58)))
(assert (not (= x48 x68)))
(assert (not (= x48 (_ bv1 8))))
(assert (not (= x48 (_ bv5 8))))
(assert (not (= x58 x68)))
(assert (not (= x58 (_ bv1 8))))
(assert (not (= x58 (_ bv5 8))))
(assert (not (= x68 (_ bv1 8))))
(assert (not (= x68 (_ bv5 8))))
(assert (not (= (_ bv1 8) (_ bv5 8))))
(assert (not (= x00 (_ bv2 8))))
(assert (not (= x00 x02)))
(assert (not (= x00 x10)))
(assert (not (= x00 x11)))
(assert (not (= x00 (_ bv8 8))))
(assert (not (= x00 (_ bv3 8))))
(assert (not (= x00 x21)))
(assert (not (= x00 (_ bv5 8))))
(assert (not (= (_ bv2 8) x02)))
(assert (not (= (_ bv2 8) x10)))
(assert (not (= (_ bv2 8) x11)))
(assert (not (= (_ bv2 8) (_ bv8 8))))
(assert (not (= (_ bv2 8) (_ bv3 8))))
(assert (not (= (_ bv2 8) x21)))
(assert (not (= (_ bv2 8) (_ bv5 8))))
(assert (not (= x02 x10)))
(assert (not (= x02 x11)))
(assert (not (= x02 (_ bv8 8))))
(assert (not (= x02 (_ bv3 8))))
(assert (not (= x02 x21)))
(assert (not (= x02 (_ bv5 8))))
(assert (not (= x10 x11)))
(assert (not (= x10 (_ bv8 8))))
(assert (not (= x10 (_ bv3 8))))
(assert (not (= x10 x21)))
(assert (not (= x10 (_ bv5 8))))
(assert (not (= x11 (_ bv8 8))))
(assert (not (= x11 (_ bv3 8))))
(assert (not (= x11 x21)))
(assert (not (= x11 (_ bv5 8))))
(assert (not (= (_ bv8 8) (_ bv3 8))))
(assert (not (= (_ bv8 8) x21)))
(assert (not (= (_ bv8 8) (_ bv5 8))))
(assert (not (= (_ bv3 8) x21)))
(assert (not (= (_ bv3 8) (_ bv5 8))))
(assert (not (= x21 (_ bv5 8))))
(assert (not (= x03 (_ bv3 8))))
(assert (not (= x03 (_ bv4 8))))
(assert (not (= x03 x13)))
(assert (not (= x03 (_ bv9 8))))
(assert (not (= x03 (_ bv1 8))))
(assert (not (= x03 (_ bv7 8))))
(assert (not (= x03 x24)))
(assert (not (= x03 x25)))
(assert (not (= (_ bv3 8) (_ bv4 8))))
(assert (not (= (_ bv3 8) x13)))
(assert (not (= (_ bv3 8) (_ bv9 8))))
(assert (not (= (_ bv3 8) (_ bv1 8))))
(assert (not (= (_ bv3 8) (_ bv7 8))))
(assert (not (= (_ bv3 8) x24)))
(assert (not (= (_ bv3 8) x25)))
(assert (not (= (_ bv4 8) x13)))
(assert (not (= (_ bv4 8) (_ bv9 8))))
(assert (not (= (_ bv4 8) (_ bv1 8))))
(assert (not (= (_ bv4 8) (_ bv7 8))))
(assert (not (= (_ bv4 8) x24)))
(assert (not (= (_ bv4 8) x25)))
(assert (not (= x13 (_ bv9 8))))
(assert (not (= x13 (_ bv1 8))))
(assert (not (= x13 (_ bv7 8))))
(assert (not (= x13 x24)))
(assert (not (= x13 x25)))
(assert (not (= (_ bv9 8) (_ bv1 8))))
(assert (not (= (_ bv9 8) (_ bv7 8))))
(assert (not (= (_ bv9 8) x24)))
(assert (not (= (_ bv9 8) x25)))
(assert (not (= (_ bv1 8) (_ bv7 8))))
(assert (not (= (_ bv1 8) x24)))
(assert (not (= (_ bv1 8) x25)))
(assert (not (= (_ bv7 8) x24)))
(assert (not (= (_ bv7 8) x25)))
(assert (not (= x24 x25)))
(assert (not (= (_ bv5 8) x07)))
(assert (not (= (_ bv5 8) x08)))
(assert (not (= (_ bv5 8) x16)))
(assert (not (= (_ bv5 8) x17)))
(assert (not (= (_ bv5 8) (_ bv4 8))))
(assert (not (= (_ bv5 8) (_ bv1 8))))
(assert (not (= (_ bv5 8) (_ bv6 8))))
(assert (not (= (_ bv5 8) x28)))
(assert (not (= x07 x08)))
(assert (not (= x07 x16)))
(assert (not (= x07 x17)))
(assert (not (= x07 (_ bv4 8))))
(assert (not (= x07 (_ bv1 8))))
(assert (not (= x07 (_ bv6 8))))
(assert (not (= x07 x28)))
(assert (not (= x08 x16)))
(assert (not (= x08 x17)))
(assert (not (= x08 (_ bv4 8))))
(assert (not (= x08 (_ bv1 8))))
(assert (not (= x08 (_ bv6 8))))
(assert (not (= x08 x28)))
(assert (not (= x16 x17)))
(assert (not (= x16 (_ bv4 8))))
(assert (not (= x16 (_ bv1 8))))
(assert (not (= x16 (_ bv6 8))))
(assert (not (= x16 x28)))
(assert (not (= x17 (_ bv4 8))))
(assert (not (= x17 (_ bv1 8))))
(assert (not (= x17 (_ bv6 8))))
(assert (not (= x17 x28)))
(assert (not (= (_ bv4 8) (_ bv1 8))))
(assert (not (= (_ bv4 8) (_ bv6 8))))
(assert (not (= (_ bv4 8) x28)))
(assert (not (= (_ bv1 8) (_ bv6 8))))
(assert (not (= (_ bv1 8) x28)))
(assert (not (= (_ bv6 8) x28)))
(assert (not (= x30 (_ bv8 8))))
(assert (not (= x30 x32)))
(assert (not (= x30 (_ bv7 8))))
(assert (not (= x30 x41)))
(assert (not (= x30 (_ bv3 8))))
(assert (not (= x30 (_ bv2 8))))
(assert (not (= x30 (_ bv9 8))))
(assert (not (= x30 x52)))
(assert (not (= (_ bv8 8) x32)))
(assert (not (= (_ bv8 8) (_ bv7 8))))
(assert (not (= (_ bv8 8) x41)))
(assert (not (= (_ bv8 8) (_ bv3 8))))
(assert (not (= (_ bv8 8) (_ bv2 8))))
(assert (not (= (_ bv8 8) (_ bv9 8))))
(assert (not (= (_ bv8 8) x52)))
(assert (not (= x32 (_ bv7 8))))
(assert (not (= x32 x41)))
(assert (not (= x32 (_ bv3 8))))
(assert (not (= x32 (_ bv2 8))))
(assert (not (= x32 (_ bv9 8))))
(assert (not (= x32 x52)))
(assert (not (= (_ bv7 8) x41)))
(assert (not (= (_ bv7 8) (_ bv3 8))))
(assert (not (= (_ bv7 8) (_ bv2 8))))
(assert (not (= (_ bv7 8) (_ bv9 8))))
(assert (not (= (_ bv7 8) x52)))
(assert (not (= x41 (_ bv3 8))))
(assert (not (= x41 (_ bv2 8))))
(assert (not (= x41 (_ bv9 8))))
(assert (not (= x41 x52)))
(assert (not (= (_ bv3 8) (_ bv2 8))))
(assert (not (= (_ bv3 8) (_ bv9 8))))
(assert (not (= (_ bv3 8) x52)))
(assert (not (= (_ bv2 8) (_ bv9 8))))
(assert (not (= (_ bv2 8) x52)))
(assert (not (= (_ bv9 8) x52)))
(assert (not (= x33 (_ bv6 8))))
(assert (not (= x33 x35)))
(assert (not (= x33 (_ bv9 8))))
(assert (not (= x33 x44)))
(assert (not (= x33 (_ bv5 8))))
(assert (not (= x33 x53)))
(assert (not (= x33 x54)))
(assert (not (= x33 x55)))
(assert (not (= (_ bv6 8) x35)))
(assert (not (= (_ bv6 8) (_ bv9 8))))
(assert (not (= (_ bv6 8) x44)))
(assert (not (= (_ bv6 8) (_ bv5 8))))
(assert (not (= (_ bv6 8) x53)))
(assert (not (= (_ bv6 8) x54)))
(assert (not (= (_ bv6 8) x55)))
(assert (not (= x35 (_ bv9 8))))
(assert (not (= x35 x44)))
(assert (not (= x35 (_ bv5 8))))
(assert (not (= x35 x53)))
(assert (not (= x35 x54)))
(assert (not (= x35 x55)))
(assert (not (= (_ bv9 8) x44)))
(assert (not (= (_ bv9 8) (_ bv5 8))))
(assert (not (= (_ bv9 8) x53)))
(assert (not (= (_ bv9 8) x54)))
(assert (not (= (_ bv9 8) x55)))
(assert (not (= x44 (_ bv5 8))))
(assert (not (= x44 x53)))
(assert (not (= x44 x54)))
(assert (not (= x44 x55)))
(assert (not (= (_ bv5 8) x53)))
(assert (not (= (_ bv5 8) x54)))
(assert (not (= (_ bv5 8) x55)))
(assert (not (= x53 x54)))
(assert (not (= x53 x55)))
(assert (not (= x54 x55)))
(assert (not (= x36 x37)))
(assert (not (= x36 (_ bv7 8))))
(assert (not (= x36 x46)))
(assert (not (= x36 (_ bv8 8))))
(assert (not (= x36 x48)))
(assert (not (= x36 x56)))
(assert (not (= x36 x57)))
(assert (not (= x36 x58)))
(assert (not (= x37 (_ bv7 8))))
(assert (not (= x37 x46)))
(assert (not (= x37 (_ bv8 8))))
(assert (not (= x37 x48)))
(assert (not (= x37 x56)))
(assert (not (= x37 x57)))
(assert (not (= x37 x58)))
(assert (not (= (_ bv7 8) x46)))
(assert (not (= (_ bv7 8) (_ bv8 8))))
(assert (not (= (_ bv7 8) x48)))
(assert (not (= (_ bv7 8) x56)))
(assert (not (= (_ bv7 8) x57)))
(assert (not (= (_ bv7 8) x58)))
(assert (not (= x46 (_ bv8 8))))
(assert (not (= x46 x48)))
(assert (not (= x46 x56)))
(assert (not (= x46 x57)))
(assert (not (= x46 x58)))
(assert (not (= (_ bv8 8) x48)))
(assert (not (= (_ bv8 8) x56)))
(assert (not (= (_ bv8 8) x57)))
(assert (not (= (_ bv8 8) x58)))
(assert (not (= x48 x56)))
(assert (not (= x48 x57)))
(assert (not (= x48 x58)))
(assert (not (= x56 x57)))
(assert (not (= x56 x58)))
(assert (not (= x57 x58)))
(assert (not (= x60 x61)))
(assert (not (= x60 x62)))
(assert (not (= x60 (_ bv4 8))))
(assert (not (= x60 x71)))
(assert (not (= x60 x72)))
(assert (not (= x60 x80)))
(assert (not (= x60 x81)))
(assert (not (= x60 (_ bv1 8))))
(assert (not (= x61 x62)))
(assert (not (= x61 (_ bv4 8))))
(assert (not (= x61 x71)))
(assert (not (= x61 x72)))
(assert (not (= x61 x80)))
(assert (not (= x61 x81)))
(assert (not (= x61 (_ bv1 8))))
(assert (not (= x62 (_ bv4 8))))
(assert (not (= x62 x71)))
(assert (not (= x62 x72)))
(assert (not (= x62 x80)))
(assert (not (= x62 x81)))
(assert (not (= x62 (_ bv1 8))))
(assert (not (= (_ bv4 8) x71)))
(assert (not (= (_ bv4 8) x72)))
(assert (not (= (_ bv4 8) x80)))
(assert (not (= (_ bv4 8) x81)))
(assert (not (= (_ bv4 8) (_ bv1 8))))
(assert (not (= x71 x72)))
(assert (not (= x71 x80)))
(assert (not (= x71 x81)))
(assert (not (= x71 (_ bv1 8))))
(assert (not (= x72 x80)))
(assert (not (= x72 x81)))
(assert (not (= x72 (_ bv1 8))))
(assert (not (= x80 x81)))
(assert (not (= x80 (_ bv1 8))))
(assert (not (= x81 (_ bv1 8))))
(assert (not (= x63 x64)))
(assert (not (= x63 (_ bv8 8))))
(assert (not (= x63 (_ bv3 8))))
(assert (not (= x63 (_ bv2 8))))
(assert (not (= x63 (_ bv6 8))))
(assert (not (= x63 x83)))
(assert (not (= x63 (_ bv7 8))))
(assert (not (= x63 x85)))
(assert (not (= x64 (_ bv8 8))))
(assert (not (= x64 (_ bv3 8))))
(assert (not (= x64 (_ bv2 8))))
(assert (not (= x64 (_ bv6 8))))
(assert (not (= x64 x83)))
(assert (not (= x64 (_ bv7 8))))
(assert (not (= x64 x85)))
(assert (not (= (_ bv8 8) (_ bv3 8))))
(assert (not (= (_ bv8 8) (_ bv2 8))))
(assert (not (= (_ bv8 8) (_ bv6 8))))
(assert (not (= (_ bv8 8) x83)))
(assert (not (= (_ bv8 8) (_ bv7 8))))
(assert (not (= (_ bv8 8) x85)))
(assert (not (= (_ bv3 8) (_ bv2 8))))
(assert (not (= (_ bv3 8) (_ bv6 8))))
(assert (not (= (_ bv3 8) x83)))
(assert (not (= (_ bv3 8) (_ bv7 8))))
(assert (not (= (_ bv3 8) x85)))
(assert (not (= (_ bv2 8) (_ bv6 8))))
(assert (not (= (_ bv2 8) x83)))
(assert (not (= (_ bv2 8) (_ bv7 8))))
(assert (not (= (_ bv2 8) x85)))
(assert (not (= (_ bv6 8) x83)))
(assert (not (= (_ bv6 8) (_ bv7 8))))
(assert (not (= (_ bv6 8) x85)))
(assert (not (= x83 (_ bv7 8))))
(assert (not (= x83 x85)))
(assert (not (= (_ bv7 8) x85)))
(assert (not (= (_ bv7 8) x67)))
(assert (not (= (_ bv7 8) x68)))
(assert (not (= (_ bv7 8) x76)))
(assert (not (= (_ bv7 8) x77)))
(assert (not (= (_ bv7 8) (_ bv1 8))))
(assert (not (= (_ bv7 8) x86)))
(assert (not (= (_ bv7 8) (_ bv3 8))))
(assert (not (= (_ bv7 8) (_ bv5 8))))
(assert (not (= x67 x68)))
(assert (not (= x67 x76)))
(assert (not (= x67 x77)))
(assert (not (= x67 (_ bv1 8))))
(assert (not (= x67 x86)))
(assert (not (= x67 (_ bv3 8))))
(assert (not (= x67 (_ bv5 8))))
(assert (not (= x68 x76)))
(assert (not (= x68 x77)))
(assert (not (= x68 (_ bv1 8))))
(assert (not (= x68 x86)))
(assert (not (= x68 (_ bv3 8))))
(assert (not (= x68 (_ bv5 8))))
(assert (not (= x76 x77)))
(assert (not (= x76 (_ bv1 8))))
(assert (not (= x76 x86)))
(assert (not (= x76 (_ bv3 8))))
(assert (not (= x76 (_ bv5 8))))
(assert (not (= x77 (_ bv1 8))))
(assert (not (= x77 x86)))
(assert (not (= x77 (_ bv3 8))))
(assert (not (= x77 (_ bv5 8))))
(assert (not (= (_ bv1 8) x86)))
(assert (not (= (_ bv1 8) (_ bv3 8))))
(assert (not (= (_ bv1 8) (_ bv5 8))))
(assert (not (= x86 (_ bv3 8))))
(assert (not (= x86 (_ bv5 8))))
(assert (not (= (_ bv3 8) (_ bv5 8))))
(check-sat)
(exit)
